;---
; using 8-bit bit-vectors as characters
; check membership of .Net regex
; regexA = ^[_a-zA-Z0-9-]+(\.[_a-zA-Z0-9-]+)?@[a-zA-Z0-9-]+(((\.[0-9]{1,3}){0,3})|((\.(co|com|net|org|edu|gov|mil|aero|coop|info|museum|name|ac|ad|ae|af|ag|ai|al|am|an|ao|aq|ar|as|at|au|aw|az|ba|bb|bd|be|bf|bg|bh|bi|bj|bm|bn|bo|br|bs|bt|bv|bw|by|bz|ca|cc|cd|cf|cg|ch|ci|ck|cl|cm|cn|co|cr|cu|cv|cx|cy|cz|de|dj|dk|dm|do|dz|ec|ee|eg|eh|er|es|et|fi|fj|fk|fm|fo|fr|fx|ga|gb|gd|ge|gf|gg|gh|gi|gl|gm|gn|gp|gq|gr|gs|gt|gu|gw|gy|hk|hm|hn|hr|ht|hu|id|ie|il|im|in|io|iq|ir|is|it|je|jm|jo|jp|ke|kg|kh|ki|km|kn|kp|kr|kw|ky|kz|la|lb|lc|li|lk|lr|ls|lt|lu|lv|ly|ma|mc|md|mg|mh|mk|ml|mm|mn|mo|mp|mq|mr|ms|mt|mu|mv|mw|mx|my|mz|na|nc|ne|nf|ng|ni|nl|no|np|nr|nt|nu|nz|om|pa|pe|pf|pg|ph|pk|pl|pm|pn|pr|pt|pw|py|qa|re|ro|ru|rw|sa|sb|sc|sd|se|sg|sh|si|sj|sk|sl|sm|sn|so|sr|st|su|sv|sy|sz|tc|td|tf|tg|th|tj|tk|tm|tn|to|tp|tr|tt|tv|tw|tz|ua|ug|uk|um|us|uy|uz|va|vc|ve|vg|vi|vn|vu|wf|ws|ye|yt|yu|za|zm|zr|zw)){1,2}))$
;---
(set-info :status sat)
(set-option :print-success true)
(set-logic QF_BVRE)

(declare-const regexA (RegEx String))
(declare-const x String)

;witness1: "Q.z2@S.net"
(define-fun Witness1 () String (seq.++ "Q" (seq.++ "." (seq.++ "z" (seq.++ "2" (seq.++ "@" (seq.++ "S" (seq.++ "." (seq.++ "n" (seq.++ "e" (seq.++ "t" "")))))))))))
;witness2: "D.-@--z8.mc.name"
(define-fun Witness2 () String (seq.++ "D" (seq.++ "." (seq.++ "-" (seq.++ "@" (seq.++ "-" (seq.++ "-" (seq.++ "z" (seq.++ "8" (seq.++ "." (seq.++ "m" (seq.++ "c" (seq.++ "." (seq.++ "n" (seq.++ "a" (seq.++ "m" (seq.++ "e" "")))))))))))))))))

(assert (= regexA (re.++ (str.to_re "")(re.++ (re.+ (re.union (re.range "-" "-")(re.union (re.range "0" "9")(re.union (re.range "A" "Z")(re.union (re.range "_" "_") (re.range "a" "z"))))))(re.++ (re.opt (re.++ (re.range "." ".") (re.+ (re.union (re.range "-" "-")(re.union (re.range "0" "9")(re.union (re.range "A" "Z")(re.union (re.range "_" "_") (re.range "a" "z"))))))))(re.++ (re.range "@" "@")(re.++ (re.+ (re.union (re.range "-" "-")(re.union (re.range "0" "9")(re.union (re.range "A" "Z") (re.range "a" "z")))))(re.++ (re.union ((_ re.loop 0 3) (re.++ (re.range "." ".") ((_ re.loop 1 3) (re.range "0" "9")))) ((_ re.loop 1 2) (re.++ (re.range "." ".") (re.union (str.to_re (seq.++ "c" (seq.++ "o" "")))(re.union (str.to_re (seq.++ "c" (seq.++ "o" (seq.++ "m" ""))))(re.union (str.to_re (seq.++ "n" (seq.++ "e" (seq.++ "t" ""))))(re.union (str.to_re (seq.++ "o" (seq.++ "r" (seq.++ "g" ""))))(re.union (str.to_re (seq.++ "e" (seq.++ "d" (seq.++ "u" ""))))(re.union (str.to_re (seq.++ "g" (seq.++ "o" (seq.++ "v" ""))))(re.union (str.to_re (seq.++ "m" (seq.++ "i" (seq.++ "l" ""))))(re.union (str.to_re (seq.++ "a" (seq.++ "e" (seq.++ "r" (seq.++ "o" "")))))(re.union (str.to_re (seq.++ "c" (seq.++ "o" (seq.++ "o" (seq.++ "p" "")))))(re.union (str.to_re (seq.++ "i" (seq.++ "n" (seq.++ "f" (seq.++ "o" "")))))(re.union (str.to_re (seq.++ "m" (seq.++ "u" (seq.++ "s" (seq.++ "e" (seq.++ "u" (seq.++ "m" "")))))))(re.union (str.to_re (seq.++ "n" (seq.++ "a" (seq.++ "m" (seq.++ "e" "")))))(re.union (str.to_re (seq.++ "a" (seq.++ "c" "")))(re.union (str.to_re (seq.++ "a" (seq.++ "d" "")))(re.union (str.to_re (seq.++ "a" (seq.++ "e" "")))(re.union (str.to_re (seq.++ "a" (seq.++ "f" "")))(re.union (str.to_re (seq.++ "a" (seq.++ "g" "")))(re.union (str.to_re (seq.++ "a" (seq.++ "i" "")))(re.union (str.to_re (seq.++ "a" (seq.++ "l" "")))(re.union (str.to_re (seq.++ "a" (seq.++ "m" "")))(re.union (str.to_re (seq.++ "a" (seq.++ "n" "")))(re.union (str.to_re (seq.++ "a" (seq.++ "o" "")))(re.union (str.to_re (seq.++ "a" (seq.++ "q" "")))(re.union (str.to_re (seq.++ "a" (seq.++ "r" "")))(re.union (str.to_re (seq.++ "a" (seq.++ "s" "")))(re.union (str.to_re (seq.++ "a" (seq.++ "t" "")))(re.union (str.to_re (seq.++ "a" (seq.++ "u" "")))(re.union (str.to_re (seq.++ "a" (seq.++ "w" "")))(re.union (str.to_re (seq.++ "a" (seq.++ "z" "")))(re.union (str.to_re (seq.++ "b" (seq.++ "a" "")))(re.union (str.to_re (seq.++ "b" (seq.++ "b" "")))(re.union (str.to_re (seq.++ "b" (seq.++ "d" "")))(re.union (str.to_re (seq.++ "b" (seq.++ "e" "")))(re.union (str.to_re (seq.++ "b" (seq.++ "f" "")))(re.union (str.to_re (seq.++ "b" (seq.++ "g" "")))(re.union (str.to_re (seq.++ "b" (seq.++ "h" "")))(re.union (str.to_re (seq.++ "b" (seq.++ "i" "")))(re.union (str.to_re (seq.++ "b" (seq.++ "j" "")))(re.union (str.to_re (seq.++ "b" (seq.++ "m" "")))(re.union (str.to_re (seq.++ "b" (seq.++ "n" "")))(re.union (str.to_re (seq.++ "b" (seq.++ "o" "")))(re.union (str.to_re (seq.++ "b" (seq.++ "r" "")))(re.union (str.to_re (seq.++ "b" (seq.++ "s" "")))(re.union (str.to_re (seq.++ "b" (seq.++ "t" "")))(re.union (str.to_re (seq.++ "b" (seq.++ "v" "")))(re.union (str.to_re (seq.++ "b" (seq.++ "w" "")))(re.union (str.to_re (seq.++ "b" (seq.++ "y" "")))(re.union (str.to_re (seq.++ "b" (seq.++ "z" "")))(re.union (str.to_re (seq.++ "c" (seq.++ "a" "")))(re.union (str.to_re (seq.++ "c" (seq.++ "c" "")))(re.union (str.to_re (seq.++ "c" (seq.++ "d" "")))(re.union (str.to_re (seq.++ "c" (seq.++ "f" "")))(re.union (str.to_re (seq.++ "c" (seq.++ "g" "")))(re.union (str.to_re (seq.++ "c" (seq.++ "h" "")))(re.union (str.to_re (seq.++ "c" (seq.++ "i" "")))(re.union (str.to_re (seq.++ "c" (seq.++ "k" "")))(re.union (str.to_re (seq.++ "c" (seq.++ "l" "")))(re.union (str.to_re (seq.++ "c" (seq.++ "m" "")))(re.union (str.to_re (seq.++ "c" (seq.++ "n" "")))(re.union (str.to_re (seq.++ "c" (seq.++ "o" "")))(re.union (str.to_re (seq.++ "c" (seq.++ "r" "")))(re.union (str.to_re (seq.++ "c" (seq.++ "u" "")))(re.union (str.to_re (seq.++ "c" (seq.++ "v" "")))(re.union (str.to_re (seq.++ "c" (seq.++ "x" "")))(re.union (str.to_re (seq.++ "c" (seq.++ "y" "")))(re.union (str.to_re (seq.++ "c" (seq.++ "z" "")))(re.union (str.to_re (seq.++ "d" (seq.++ "e" "")))(re.union (str.to_re (seq.++ "d" (seq.++ "j" "")))(re.union (str.to_re (seq.++ "d" (seq.++ "k" "")))(re.union (str.to_re (seq.++ "d" (seq.++ "m" "")))(re.union (str.to_re (seq.++ "d" (seq.++ "o" "")))(re.union (str.to_re (seq.++ "d" (seq.++ "z" "")))(re.union (str.to_re (seq.++ "e" (seq.++ "c" "")))(re.union (str.to_re (seq.++ "e" (seq.++ "e" "")))(re.union (str.to_re (seq.++ "e" (seq.++ "g" "")))(re.union (str.to_re (seq.++ "e" (seq.++ "h" "")))(re.union (str.to_re (seq.++ "e" (seq.++ "r" "")))(re.union (str.to_re (seq.++ "e" (seq.++ "s" "")))(re.union (str.to_re (seq.++ "e" (seq.++ "t" "")))(re.union (str.to_re (seq.++ "f" (seq.++ "i" "")))(re.union (str.to_re (seq.++ "f" (seq.++ "j" "")))(re.union (str.to_re (seq.++ "f" (seq.++ "k" "")))(re.union (str.to_re (seq.++ "f" (seq.++ "m" "")))(re.union (str.to_re (seq.++ "f" (seq.++ "o" "")))(re.union (str.to_re (seq.++ "f" (seq.++ "r" "")))(re.union (str.to_re (seq.++ "f" (seq.++ "x" "")))(re.union (str.to_re (seq.++ "g" (seq.++ "a" "")))(re.union (str.to_re (seq.++ "g" (seq.++ "b" "")))(re.union (str.to_re (seq.++ "g" (seq.++ "d" "")))(re.union (str.to_re (seq.++ "g" (seq.++ "e" "")))(re.union (str.to_re (seq.++ "g" (seq.++ "f" "")))(re.union (str.to_re (seq.++ "g" (seq.++ "g" "")))(re.union (str.to_re (seq.++ "g" (seq.++ "h" "")))(re.union (str.to_re (seq.++ "g" (seq.++ "i" "")))(re.union (str.to_re (seq.++ "g" (seq.++ "l" "")))(re.union (str.to_re (seq.++ "g" (seq.++ "m" "")))(re.union (str.to_re (seq.++ "g" (seq.++ "n" "")))(re.union (str.to_re (seq.++ "g" (seq.++ "p" "")))(re.union (str.to_re (seq.++ "g" (seq.++ "q" "")))(re.union (str.to_re (seq.++ "g" (seq.++ "r" "")))(re.union (str.to_re (seq.++ "g" (seq.++ "s" "")))(re.union (str.to_re (seq.++ "g" (seq.++ "t" "")))(re.union (str.to_re (seq.++ "g" (seq.++ "u" "")))(re.union (str.to_re (seq.++ "g" (seq.++ "w" "")))(re.union (str.to_re (seq.++ "g" (seq.++ "y" "")))(re.union (str.to_re (seq.++ "h" (seq.++ "k" "")))(re.union (str.to_re (seq.++ "h" (seq.++ "m" "")))(re.union (str.to_re (seq.++ "h" (seq.++ "n" "")))(re.union (str.to_re (seq.++ "h" (seq.++ "r" "")))(re.union (str.to_re (seq.++ "h" (seq.++ "t" "")))(re.union (str.to_re (seq.++ "h" (seq.++ "u" "")))(re.union (str.to_re (seq.++ "i" (seq.++ "d" "")))(re.union (str.to_re (seq.++ "i" (seq.++ "e" "")))(re.union (str.to_re (seq.++ "i" (seq.++ "l" "")))(re.union (str.to_re (seq.++ "i" (seq.++ "m" "")))(re.union (str.to_re (seq.++ "i" (seq.++ "n" "")))(re.union (str.to_re (seq.++ "i" (seq.++ "o" "")))(re.union (str.to_re (seq.++ "i" (seq.++ "q" "")))(re.union (str.to_re (seq.++ "i" (seq.++ "r" "")))(re.union (str.to_re (seq.++ "i" (seq.++ "s" "")))(re.union (str.to_re (seq.++ "i" (seq.++ "t" "")))(re.union (str.to_re (seq.++ "j" (seq.++ "e" "")))(re.union (str.to_re (seq.++ "j" (seq.++ "m" "")))(re.union (str.to_re (seq.++ "j" (seq.++ "o" "")))(re.union (str.to_re (seq.++ "j" (seq.++ "p" "")))(re.union (str.to_re (seq.++ "k" (seq.++ "e" "")))(re.union (str.to_re (seq.++ "k" (seq.++ "g" "")))(re.union (str.to_re (seq.++ "k" (seq.++ "h" "")))(re.union (str.to_re (seq.++ "k" (seq.++ "i" "")))(re.union (str.to_re (seq.++ "k" (seq.++ "m" "")))(re.union (str.to_re (seq.++ "k" (seq.++ "n" "")))(re.union (str.to_re (seq.++ "k" (seq.++ "p" "")))(re.union (str.to_re (seq.++ "k" (seq.++ "r" "")))(re.union (str.to_re (seq.++ "k" (seq.++ "w" "")))(re.union (str.to_re (seq.++ "k" (seq.++ "y" "")))(re.union (str.to_re (seq.++ "k" (seq.++ "z" "")))(re.union (str.to_re (seq.++ "l" (seq.++ "a" "")))(re.union (str.to_re (seq.++ "l" (seq.++ "b" "")))(re.union (str.to_re (seq.++ "l" (seq.++ "c" "")))(re.union (str.to_re (seq.++ "l" (seq.++ "i" "")))(re.union (str.to_re (seq.++ "l" (seq.++ "k" "")))(re.union (str.to_re (seq.++ "l" (seq.++ "r" "")))(re.union (str.to_re (seq.++ "l" (seq.++ "s" "")))(re.union (str.to_re (seq.++ "l" (seq.++ "t" "")))(re.union (str.to_re (seq.++ "l" (seq.++ "u" "")))(re.union (str.to_re (seq.++ "l" (seq.++ "v" "")))(re.union (str.to_re (seq.++ "l" (seq.++ "y" "")))(re.union (str.to_re (seq.++ "m" (seq.++ "a" "")))(re.union (str.to_re (seq.++ "m" (seq.++ "c" "")))(re.union (str.to_re (seq.++ "m" (seq.++ "d" "")))(re.union (str.to_re (seq.++ "m" (seq.++ "g" "")))(re.union (str.to_re (seq.++ "m" (seq.++ "h" "")))(re.union (str.to_re (seq.++ "m" (seq.++ "k" "")))(re.union (str.to_re (seq.++ "m" (seq.++ "l" "")))(re.union (str.to_re (seq.++ "m" (seq.++ "m" "")))(re.union (str.to_re (seq.++ "m" (seq.++ "n" "")))(re.union (str.to_re (seq.++ "m" (seq.++ "o" "")))(re.union (str.to_re (seq.++ "m" (seq.++ "p" "")))(re.union (str.to_re (seq.++ "m" (seq.++ "q" "")))(re.union (str.to_re (seq.++ "m" (seq.++ "r" "")))(re.union (str.to_re (seq.++ "m" (seq.++ "s" "")))(re.union (str.to_re (seq.++ "m" (seq.++ "t" "")))(re.union (str.to_re (seq.++ "m" (seq.++ "u" "")))(re.union (str.to_re (seq.++ "m" (seq.++ "v" "")))(re.union (str.to_re (seq.++ "m" (seq.++ "w" "")))(re.union (str.to_re (seq.++ "m" (seq.++ "x" "")))(re.union (str.to_re (seq.++ "m" (seq.++ "y" "")))(re.union (str.to_re (seq.++ "m" (seq.++ "z" "")))(re.union (str.to_re (seq.++ "n" (seq.++ "a" "")))(re.union (str.to_re (seq.++ "n" (seq.++ "c" "")))(re.union (str.to_re (seq.++ "n" (seq.++ "e" "")))(re.union (str.to_re (seq.++ "n" (seq.++ "f" "")))(re.union (str.to_re (seq.++ "n" (seq.++ "g" "")))(re.union (str.to_re (seq.++ "n" (seq.++ "i" "")))(re.union (str.to_re (seq.++ "n" (seq.++ "l" "")))(re.union (str.to_re (seq.++ "n" (seq.++ "o" "")))(re.union (str.to_re (seq.++ "n" (seq.++ "p" "")))(re.union (str.to_re (seq.++ "n" (seq.++ "r" "")))(re.union (str.to_re (seq.++ "n" (seq.++ "t" "")))(re.union (str.to_re (seq.++ "n" (seq.++ "u" "")))(re.union (str.to_re (seq.++ "n" (seq.++ "z" "")))(re.union (str.to_re (seq.++ "o" (seq.++ "m" "")))(re.union (str.to_re (seq.++ "p" (seq.++ "a" "")))(re.union (str.to_re (seq.++ "p" (seq.++ "e" "")))(re.union (str.to_re (seq.++ "p" (seq.++ "f" "")))(re.union (str.to_re (seq.++ "p" (seq.++ "g" "")))(re.union (str.to_re (seq.++ "p" (seq.++ "h" "")))(re.union (str.to_re (seq.++ "p" (seq.++ "k" "")))(re.union (str.to_re (seq.++ "p" (seq.++ "l" "")))(re.union (str.to_re (seq.++ "p" (seq.++ "m" "")))(re.union (str.to_re (seq.++ "p" (seq.++ "n" "")))(re.union (str.to_re (seq.++ "p" (seq.++ "r" "")))(re.union (str.to_re (seq.++ "p" (seq.++ "t" "")))(re.union (str.to_re (seq.++ "p" (seq.++ "w" "")))(re.union (str.to_re (seq.++ "p" (seq.++ "y" "")))(re.union (str.to_re (seq.++ "q" (seq.++ "a" "")))(re.union (str.to_re (seq.++ "r" (seq.++ "e" "")))(re.union (str.to_re (seq.++ "r" (seq.++ "o" "")))(re.union (str.to_re (seq.++ "r" (seq.++ "u" "")))(re.union (str.to_re (seq.++ "r" (seq.++ "w" "")))(re.union (str.to_re (seq.++ "s" (seq.++ "a" "")))(re.union (str.to_re (seq.++ "s" (seq.++ "b" "")))(re.union (str.to_re (seq.++ "s" (seq.++ "c" "")))(re.union (str.to_re (seq.++ "s" (seq.++ "d" "")))(re.union (str.to_re (seq.++ "s" (seq.++ "e" "")))(re.union (str.to_re (seq.++ "s" (seq.++ "g" "")))(re.union (str.to_re (seq.++ "s" (seq.++ "h" "")))(re.union (str.to_re (seq.++ "s" (seq.++ "i" "")))(re.union (str.to_re (seq.++ "s" (seq.++ "j" "")))(re.union (str.to_re (seq.++ "s" (seq.++ "k" "")))(re.union (str.to_re (seq.++ "s" (seq.++ "l" "")))(re.union (str.to_re (seq.++ "s" (seq.++ "m" "")))(re.union (str.to_re (seq.++ "s" (seq.++ "n" "")))(re.union (str.to_re (seq.++ "s" (seq.++ "o" "")))(re.union (str.to_re (seq.++ "s" (seq.++ "r" "")))(re.union (str.to_re (seq.++ "s" (seq.++ "t" "")))(re.union (str.to_re (seq.++ "s" (seq.++ "u" "")))(re.union (str.to_re (seq.++ "s" (seq.++ "v" "")))(re.union (str.to_re (seq.++ "s" (seq.++ "y" "")))(re.union (str.to_re (seq.++ "s" (seq.++ "z" "")))(re.union (str.to_re (seq.++ "t" (seq.++ "c" "")))(re.union (str.to_re (seq.++ "t" (seq.++ "d" "")))(re.union (str.to_re (seq.++ "t" (seq.++ "f" "")))(re.union (str.to_re (seq.++ "t" (seq.++ "g" "")))(re.union (str.to_re (seq.++ "t" (seq.++ "h" "")))(re.union (str.to_re (seq.++ "t" (seq.++ "j" "")))(re.union (str.to_re (seq.++ "t" (seq.++ "k" "")))(re.union (str.to_re (seq.++ "t" (seq.++ "m" "")))(re.union (str.to_re (seq.++ "t" (seq.++ "n" "")))(re.union (str.to_re (seq.++ "t" (seq.++ "o" "")))(re.union (str.to_re (seq.++ "t" (seq.++ "p" "")))(re.union (str.to_re (seq.++ "t" (seq.++ "r" "")))(re.union (str.to_re (seq.++ "t" (seq.++ "t" "")))(re.union (str.to_re (seq.++ "t" (seq.++ "v" "")))(re.union (str.to_re (seq.++ "t" (seq.++ "w" "")))(re.union (str.to_re (seq.++ "t" (seq.++ "z" "")))(re.union (str.to_re (seq.++ "u" (seq.++ "a" "")))(re.union (str.to_re (seq.++ "u" (seq.++ "g" "")))(re.union (str.to_re (seq.++ "u" (seq.++ "k" "")))(re.union (str.to_re (seq.++ "u" (seq.++ "m" "")))(re.union (str.to_re (seq.++ "u" (seq.++ "s" "")))(re.union (str.to_re (seq.++ "u" (seq.++ "y" "")))(re.union (str.to_re (seq.++ "u" (seq.++ "z" "")))(re.union (str.to_re (seq.++ "v" (seq.++ "a" "")))(re.union (str.to_re (seq.++ "v" (seq.++ "c" "")))(re.union (str.to_re (seq.++ "v" (seq.++ "e" "")))(re.union (str.to_re (seq.++ "v" (seq.++ "g" "")))(re.union (str.to_re (seq.++ "v" (seq.++ "i" "")))(re.union (str.to_re (seq.++ "v" (seq.++ "n" "")))(re.union (str.to_re (seq.++ "v" (seq.++ "u" "")))(re.union (str.to_re (seq.++ "w" (seq.++ "f" "")))(re.union (str.to_re (seq.++ "w" (seq.++ "s" "")))(re.union (str.to_re (seq.++ "y" (seq.++ "e" "")))(re.union (str.to_re (seq.++ "y" (seq.++ "t" "")))(re.union (str.to_re (seq.++ "y" (seq.++ "u" "")))(re.union (str.to_re (seq.++ "z" (seq.++ "a" "")))(re.union (str.to_re (seq.++ "z" (seq.++ "m" "")))(re.union (str.to_re (seq.++ "z" (seq.++ "r" ""))) (str.to_re (seq.++ "z" (seq.++ "w" "")))))))))))))))))))))))))))))))))))))))))))))))))))))))))))))))))))))))))))))))))))))))))))))))))))))))))))))))))))))))))))))))))))))))))))))))))))))))))))))))))))))))))))))))))))))))))))))))))))))))))))))))))))))))))))))))))))))))))))))))))))))))))))))))))))))))) (str.to_re "")))))))))

;check that the regex contains some x
(assert (str.in_re x regexA))
;check also the concrete witnesses
(assert (str.in_re Witness1 regexA))
(assert (str.in_re Witness2 regexA))
(check-sat)
